Minimize
  2 x_large_pill + 1 x_small_pill
Subject To
  c1: 3 x_large_pill + 2 x_small_pill <= 1000
  c2: x_large_pill >= 100
  c3: 0.4 x_small_pill - 0.6 x_large_pill >= 0
Integer
  x_large_pill x_small_pill
End